InboundTrucks  = 20;
OutboundTrucks = 20;
InboundDoors   = 4;
OutboundDoors  = 4;
ReleaseTime    = [30,75,69,16,47,117,77,60,80,74,8,77,1,116,107,60,33,70,29,24];
UnloadTime     = [23,18,32,23,21,10,12,32,26,20,33,35,25,28,33,25,18,33,25,11];
LoadTime       = [10,18,21,9,12,16,13,9,13,17,14,24,12,11,10,20,12,23,16,8];
TransferTime   = [| 5,0,0,0,0,0,0,0,0,1,0,0,0,9,0,1,9,0,2,0 | 0,5,0,0,1,11,0,0,0,0,1,5,10,2,0,0,0,0,0,1 | 6,0,4,0,0,5,6,0,3,0,0,3,0,0,0,0,0,2,6,0 | 6,0,0,3,0,0,2,0,6,2,0,0,0,9,12,0,0,0,2,4 | 0,2,0,0,5,0,0,2,0,0,0,0,0,0,0,0,5,0,0,2 | 0,0,0,0,0,6,0,0,5,10,0,5,0,0,2,0,0,3,0,0 | 2,0,7,1,10,0,6,0,0,2,0,0,2,0,0,3,0,0,0,7 | 0,3,0,6,0,0,0,0,0,0,0,0,0,0,0,0,0,0,12,0 | 0,0,3,10,0,6,8,0,2,0,0,0,0,0,0,0,0,2,0,0 | 0,0,0,4,5,0,4,7,0,3,0,0,1,0,0,0,6,0,0,4 | 0,1,0,0,5,0,11,3,0,6,4,10,0,4,0,0,2,0,0,6 | 0,0,0,0,0,2,0,0,0,0,0,1,4,10,6,0,10,2,0,0 | 1,0,0,3,0,0,1,0,0,0,8,0,6,0,0,4,0,0,0,0 | 0,0,0,0,0,0,0,0,0,0,4,0,0,0,0,0,4,0,0,5 | 10,0,0,0,0,0,0,0,5,0,0,3,0,0,0,0,5,0,0,0 | 1,0,0,0,0,0,1,0,0,6,6,0,3,0,0,0,0,0,6,0 | 0,2,0,0,2,0,0,0,0,0,4,0,0,6,0,9,0,0,0,4 | 0,0,1,0,9,3,0,0,0,8,0,0,0,8,0,0,0,4,0,0 | 1,0,0,0,9,0,2,0,0,4,11,0,0,5,0,4,0,0,0,0 | 0,5,0,0,0,0,0,6,0,7,4,0,0,4,12,9,2,0,0,0 |];
